22 48 2 
84 89 7 
125 141 76 
100 56 64 
93 142 49 
126 31 29 
32 93 64 
79 145 7 
118 30 109 
46 110 125 
143 101 131 
125 68 76 
14 129 50 
127 37 150 
22 112 83 
144 27 58 
120 116 82 
146 13 138 
139 4 23 
116 79 25 
22 26 123 
